Minimize
	value: tt

Subject to
tt + 1000 s_1_1 > 0.0
tt - t_1_1 - 1000.000000 s_1_1  + 0.000000 s_1_8  + 0.000000 s_1_7  > -988.795800
tt + 1000 s_2_1 > 0.0
tt - t_2_1 - 1000.000000 s_2_1  + 0.000000 s_2_8  + 0.000000 s_2_7  > -977.998818
tt + 1000 s_1_2 > 0.0
tt - t_1_2 - 1000.000000 s_1_2  + 0.000000 s_1_7  > -988.699278
tt + 1000 s_2_2 > 0.0
tt - t_2_2 - 1000.000000 s_2_2  + 0.000000 s_2_7  > -977.976700
tt + 1000 s_1_3 > 0.0
tt - t_1_3 - 1000.000000 s_1_3  + 0.000000 s_1_8  + 0.000000 s_1_7  > -998.340833
tt + 1000 s_2_3 > 0.0
tt - t_2_3 - 1000.000000 s_2_3  + 0.000000 s_2_8  + 0.000000 s_2_7  > -995.769361
tt + 1000 s_1_4 > 0.0
tt - t_1_4 - 1000.000000 s_1_4  + 0.000000 s_1_7  > -997.482950
tt + 1000 s_2_4 > 0.0
tt - t_2_4 - 1000.000000 s_2_4  + 0.000000 s_2_7  > -991.659900
tt + 1000 s_1_5 > 0.0
tt - t_1_5 - 1000.000000 s_1_5  + 0.000000 s_1_8  > -994.621800
tt + 1000 s_2_5 > 0.0
tt - t_2_5 - 1000.000000 s_2_5  + 0.000000 s_2_8  > -990.273326
tt + 1000 s_1_6 > 0.0
tt - t_1_6 - 1000.000000 s_1_6  + 0.000000 s_1_2  + 0.000000 s_1_5  + 0.000000 s_1_4  + 0.000000 s_1_1  + 0.000000 s_1_3  + 0.000000 s_1_7  > -998.984400
tt + 1000 s_2_6 > 0.0
tt - t_2_6 - 1000.000000 s_2_6  + 0.000000 s_2_2  + 0.000000 s_2_5  + 0.000000 s_2_4  + 0.000000 s_2_1  + 0.000000 s_2_3  + 0.000000 s_2_7  > -997.340750
tt + 1000 s_1_7 > 0.0
tt - t_1_7 - 1000.000000 s_1_7  > -984.725814
tt + 1000 s_2_7 > 0.0
tt - t_2_7 - 1000.000000 s_2_7  > -967.064250
tt + 1000 s_1_8 > 0.0
tt - t_1_8 - 1000.000000 s_1_8  > -985.034000
tt + 1000 s_2_8 > 0.0
tt - t_2_8 - 1000.000000 s_2_8  > -969.267500
s_1_1 + s_2_1 = 1
s_1_2 + s_2_2 = 1
s_1_3 + s_2_3 = 1
s_1_4 + s_2_4 = 1
s_1_5 + s_2_5 = 1
s_1_6 + s_2_6 = 1
s_1_7 + s_2_7 = 1
s_1_8 + s_2_8 = 1
s_1_1 + s_1_2 + 1000 r_1_1_2 >= 2
- s_1_1 - s_1_2 - 1000 r_1_1_2 >= -1001
t_1_1 - t_1_2 - 1000.000000 u_1_1_2 - 0.000000 s_1_2  + 0.000000 s_1_7  + 2000.000000 r_1_1_2 > -988.699278
s_2_1 + s_2_2 + 1000 r_2_1_2 >= 2
- s_2_1 - s_2_2 - 1000 r_2_1_2 >= -1001
t_2_1 - t_2_2 - 1000.000000 u_2_1_2 - 0.000000 s_2_2  + 0.000000 s_2_7  + 2000.000000 r_2_1_2 > -977.976700
s_1_1 + s_1_3 + 1000 r_1_1_3 >= 2
- s_1_1 - s_1_3 - 1000 r_1_1_3 >= -1001
t_1_1 - t_1_3 - 1000.000000 u_1_1_3 - 0.000000 s_1_3  + 0.000000 s_1_8  + 0.000000 s_1_7  + 2000.000000 r_1_1_3 > -998.340833
s_2_1 + s_2_3 + 1000 r_2_1_3 >= 2
- s_2_1 - s_2_3 - 1000 r_2_1_3 >= -1001
t_2_1 - t_2_3 - 1000.000000 u_2_1_3 - 0.000000 s_2_3  + 0.000000 s_2_8  + 0.000000 s_2_7  + 2000.000000 r_2_1_3 > -995.769361
s_1_1 + s_1_4 + 1000 r_1_1_4 >= 2
- s_1_1 - s_1_4 - 1000 r_1_1_4 >= -1001
t_1_1 - t_1_4 - 1000.000000 u_1_1_4 - 0.000000 s_1_4  + 0.000000 s_1_7  + 2000.000000 r_1_1_4 > -997.482950
s_2_1 + s_2_4 + 1000 r_2_1_4 >= 2
- s_2_1 - s_2_4 - 1000 r_2_1_4 >= -1001
t_2_1 - t_2_4 - 1000.000000 u_2_1_4 - 0.000000 s_2_4  + 0.000000 s_2_7  + 2000.000000 r_2_1_4 > -991.659900
s_1_1 + s_1_5 + 1000 r_1_1_5 >= 2
- s_1_1 - s_1_5 - 1000 r_1_1_5 >= -1001
t_1_1 - t_1_5 - 1000.000000 u_1_1_5 - 0.000000 s_1_5  + 0.000000 s_1_8  + 2000.000000 r_1_1_5 > -994.621800
s_2_1 + s_2_5 + 1000 r_2_1_5 >= 2
- s_2_1 - s_2_5 - 1000 r_2_1_5 >= -1001
t_2_1 - t_2_5 - 1000.000000 u_2_1_5 - 0.000000 s_2_5  + 0.000000 s_2_8  + 2000.000000 r_2_1_5 > -990.273326
t_1_6 - t_1_1 - 1000.000000 s_1_1  + 0.000000 s_1_8  + 0.000000 s_1_7  > -988.795800
t_1_6 - t_2_1 - 1000.000000 s_2_1  + 0.000000 s_2_8  + 0.000000 s_2_7  > -977.998818
t_2_6 - t_1_1 - 1000.000000 s_1_1  + 0.000000 s_1_8  + 0.000000 s_1_7  > -988.795800
t_2_6 - t_2_1 - 1000.000000 s_2_1  + 0.000000 s_2_8  + 0.000000 s_2_7  > -977.998818
t_1_1 - t_1_7 - 1000.000000 s_1_7  > -984.725814
t_1_1 - t_2_7 - 1000.000000 s_2_7  > -967.064250
t_2_1 - t_1_7 - 1000.000000 s_1_7  > -984.725814
t_2_1 - t_2_7 - 1000.000000 s_2_7  > -967.064250
t_1_1 - t_1_8 - 1000.000000 s_1_8  > -985.034000
t_1_1 - t_2_8 - 1000.000000 s_2_8  > -969.267500
t_2_1 - t_1_8 - 1000.000000 s_1_8  > -985.034000
t_2_1 - t_2_8 - 1000.000000 s_2_8  > -969.267500
s_1_2 + s_1_1 + 1000 r_1_1_2 >= 2
- s_1_2 - s_1_1 - 1000 r_1_1_2 >= -1001
t_1_2 - t_1_1 + 1000.000000 u_1_1_2 - 0.000000 s_1_1  + 0.000000 s_1_8  + 0.000000 s_1_7  + 2000.000000 r_1_1_2 > 11.204200
s_2_2 + s_2_1 + 1000 r_2_1_2 >= 2
- s_2_2 - s_2_1 - 1000 r_2_1_2 >= -1001
t_2_2 - t_2_1 + 1000.000000 u_2_1_2 - 0.000000 s_2_1  + 0.000000 s_2_8  + 0.000000 s_2_7  + 2000.000000 r_2_1_2 > 22.001182
s_1_2 + s_1_3 + 1000 r_1_2_3 >= 2
- s_1_2 - s_1_3 - 1000 r_1_2_3 >= -1001
t_1_2 - t_1_3 - 1000.000000 u_1_2_3 - 0.000000 s_1_3  + 0.000000 s_1_8  + 0.000000 s_1_7  + 2000.000000 r_1_2_3 > -998.340833
s_2_2 + s_2_3 + 1000 r_2_2_3 >= 2
- s_2_2 - s_2_3 - 1000 r_2_2_3 >= -1001
t_2_2 - t_2_3 - 1000.000000 u_2_2_3 - 0.000000 s_2_3  + 0.000000 s_2_8  + 0.000000 s_2_7  + 2000.000000 r_2_2_3 > -995.769361
s_1_2 + s_1_4 + 1000 r_1_2_4 >= 2
- s_1_2 - s_1_4 - 1000 r_1_2_4 >= -1001
t_1_2 - t_1_4 - 1000.000000 u_1_2_4 - 0.000000 s_1_4  + 0.000000 s_1_7  + 2000.000000 r_1_2_4 > -997.482950
s_2_2 + s_2_4 + 1000 r_2_2_4 >= 2
- s_2_2 - s_2_4 - 1000 r_2_2_4 >= -1001
t_2_2 - t_2_4 - 1000.000000 u_2_2_4 - 0.000000 s_2_4  + 0.000000 s_2_7  + 2000.000000 r_2_2_4 > -991.659900
s_1_2 + s_1_5 + 1000 r_1_2_5 >= 2
- s_1_2 - s_1_5 - 1000 r_1_2_5 >= -1001
t_1_2 - t_1_5 - 1000.000000 u_1_2_5 - 0.000000 s_1_5  + 0.000000 s_1_8  + 2000.000000 r_1_2_5 > -994.621800
s_2_2 + s_2_5 + 1000 r_2_2_5 >= 2
- s_2_2 - s_2_5 - 1000 r_2_2_5 >= -1001
t_2_2 - t_2_5 - 1000.000000 u_2_2_5 - 0.000000 s_2_5  + 0.000000 s_2_8  + 2000.000000 r_2_2_5 > -990.273326
t_1_6 - t_1_2 - 1000.000000 s_1_2  + 0.000000 s_1_7  > -988.699278
t_1_6 - t_2_2 - 1000.000000 s_2_2  + 0.000000 s_2_7  > -977.976700
t_2_6 - t_1_2 - 1000.000000 s_1_2  + 0.000000 s_1_7  > -988.699278
t_2_6 - t_2_2 - 1000.000000 s_2_2  + 0.000000 s_2_7  > -977.976700
t_1_2 - t_1_7 - 1000.000000 s_1_7  > -984.725814
t_1_2 - t_2_7 - 1000.000000 s_2_7  > -967.064250
t_2_2 - t_1_7 - 1000.000000 s_1_7  > -984.725814
t_2_2 - t_2_7 - 1000.000000 s_2_7  > -967.064250
s_1_2 + s_1_8 + 1000 r_1_2_8 >= 2
- s_1_2 - s_1_8 - 1000 r_1_2_8 >= -1001
t_1_2 - t_1_8 - 1000.000000 u_1_2_8 - 0.000000 s_1_8  + 2000.000000 r_1_2_8 > -985.034000
s_2_2 + s_2_8 + 1000 r_2_2_8 >= 2
- s_2_2 - s_2_8 - 1000 r_2_2_8 >= -1001
t_2_2 - t_2_8 - 1000.000000 u_2_2_8 - 0.000000 s_2_8  + 2000.000000 r_2_2_8 > -969.267500
s_1_3 + s_1_1 + 1000 r_1_1_3 >= 2
- s_1_3 - s_1_1 - 1000 r_1_1_3 >= -1001
t_1_3 - t_1_1 + 1000.000000 u_1_1_3 - 0.000000 s_1_1  + 0.000000 s_1_8  + 0.000000 s_1_7  + 2000.000000 r_1_1_3 > 11.204200
s_2_3 + s_2_1 + 1000 r_2_1_3 >= 2
- s_2_3 - s_2_1 - 1000 r_2_1_3 >= -1001
t_2_3 - t_2_1 + 1000.000000 u_2_1_3 - 0.000000 s_2_1  + 0.000000 s_2_8  + 0.000000 s_2_7  + 2000.000000 r_2_1_3 > 22.001182
s_1_3 + s_1_2 + 1000 r_1_2_3 >= 2
- s_1_3 - s_1_2 - 1000 r_1_2_3 >= -1001
t_1_3 - t_1_2 + 1000.000000 u_1_2_3 - 0.000000 s_1_2  + 0.000000 s_1_7  + 2000.000000 r_1_2_3 > 11.300722
s_2_3 + s_2_2 + 1000 r_2_2_3 >= 2
- s_2_3 - s_2_2 - 1000 r_2_2_3 >= -1001
t_2_3 - t_2_2 + 1000.000000 u_2_2_3 - 0.000000 s_2_2  + 0.000000 s_2_7  + 2000.000000 r_2_2_3 > 22.023300
s_1_3 + s_1_4 + 1000 r_1_3_4 >= 2
- s_1_3 - s_1_4 - 1000 r_1_3_4 >= -1001
t_1_3 - t_1_4 - 1000.000000 u_1_3_4 - 0.000000 s_1_4  + 0.000000 s_1_7  + 2000.000000 r_1_3_4 > -997.482950
s_2_3 + s_2_4 + 1000 r_2_3_4 >= 2
- s_2_3 - s_2_4 - 1000 r_2_3_4 >= -1001
t_2_3 - t_2_4 - 1000.000000 u_2_3_4 - 0.000000 s_2_4  + 0.000000 s_2_7  + 2000.000000 r_2_3_4 > -991.659900
s_1_3 + s_1_5 + 1000 r_1_3_5 >= 2
- s_1_3 - s_1_5 - 1000 r_1_3_5 >= -1001
t_1_3 - t_1_5 - 1000.000000 u_1_3_5 - 0.000000 s_1_5  + 0.000000 s_1_8  + 2000.000000 r_1_3_5 > -994.621800
s_2_3 + s_2_5 + 1000 r_2_3_5 >= 2
- s_2_3 - s_2_5 - 1000 r_2_3_5 >= -1001
t_2_3 - t_2_5 - 1000.000000 u_2_3_5 - 0.000000 s_2_5  + 0.000000 s_2_8  + 2000.000000 r_2_3_5 > -990.273326
t_1_6 - t_1_3 - 1000.000000 s_1_3  + 0.000000 s_1_8  + 0.000000 s_1_7  > -998.340833
t_1_6 - t_2_3 - 1000.000000 s_2_3  + 0.000000 s_2_8  + 0.000000 s_2_7  > -995.769361
t_2_6 - t_1_3 - 1000.000000 s_1_3  + 0.000000 s_1_8  + 0.000000 s_1_7  > -998.340833
t_2_6 - t_2_3 - 1000.000000 s_2_3  + 0.000000 s_2_8  + 0.000000 s_2_7  > -995.769361
t_1_3 - t_1_7 - 1000.000000 s_1_7  > -984.725814
t_1_3 - t_2_7 - 1000.000000 s_2_7  > -967.064250
t_2_3 - t_1_7 - 1000.000000 s_1_7  > -984.725814
t_2_3 - t_2_7 - 1000.000000 s_2_7  > -967.064250
t_1_3 - t_1_8 - 1000.000000 s_1_8  > -985.034000
t_1_3 - t_2_8 - 1000.000000 s_2_8  > -969.267500
t_2_3 - t_1_8 - 1000.000000 s_1_8  > -985.034000
t_2_3 - t_2_8 - 1000.000000 s_2_8  > -969.267500
s_1_4 + s_1_1 + 1000 r_1_1_4 >= 2
- s_1_4 - s_1_1 - 1000 r_1_1_4 >= -1001
t_1_4 - t_1_1 + 1000.000000 u_1_1_4 - 0.000000 s_1_1  + 0.000000 s_1_8  + 0.000000 s_1_7  + 2000.000000 r_1_1_4 > 11.204200
s_2_4 + s_2_1 + 1000 r_2_1_4 >= 2
- s_2_4 - s_2_1 - 1000 r_2_1_4 >= -1001
t_2_4 - t_2_1 + 1000.000000 u_2_1_4 - 0.000000 s_2_1  + 0.000000 s_2_8  + 0.000000 s_2_7  + 2000.000000 r_2_1_4 > 22.001182
s_1_4 + s_1_2 + 1000 r_1_2_4 >= 2
- s_1_4 - s_1_2 - 1000 r_1_2_4 >= -1001
t_1_4 - t_1_2 + 1000.000000 u_1_2_4 - 0.000000 s_1_2  + 0.000000 s_1_7  + 2000.000000 r_1_2_4 > 11.300722
s_2_4 + s_2_2 + 1000 r_2_2_4 >= 2
- s_2_4 - s_2_2 - 1000 r_2_2_4 >= -1001
t_2_4 - t_2_2 + 1000.000000 u_2_2_4 - 0.000000 s_2_2  + 0.000000 s_2_7  + 2000.000000 r_2_2_4 > 22.023300
s_1_4 + s_1_3 + 1000 r_1_3_4 >= 2
- s_1_4 - s_1_3 - 1000 r_1_3_4 >= -1001
t_1_4 - t_1_3 + 1000.000000 u_1_3_4 - 0.000000 s_1_3  + 0.000000 s_1_8  + 0.000000 s_1_7  + 2000.000000 r_1_3_4 > 1.659167
s_2_4 + s_2_3 + 1000 r_2_3_4 >= 2
- s_2_4 - s_2_3 - 1000 r_2_3_4 >= -1001
t_2_4 - t_2_3 + 1000.000000 u_2_3_4 - 0.000000 s_2_3  + 0.000000 s_2_8  + 0.000000 s_2_7  + 2000.000000 r_2_3_4 > 4.230639
s_1_4 + s_1_5 + 1000 r_1_4_5 >= 2
- s_1_4 - s_1_5 - 1000 r_1_4_5 >= -1001
t_1_4 - t_1_5 - 1000.000000 u_1_4_5 - 0.000000 s_1_5  + 0.000000 s_1_8  + 2000.000000 r_1_4_5 > -994.621800
s_2_4 + s_2_5 + 1000 r_2_4_5 >= 2
- s_2_4 - s_2_5 - 1000 r_2_4_5 >= -1001
t_2_4 - t_2_5 - 1000.000000 u_2_4_5 - 0.000000 s_2_5  + 0.000000 s_2_8  + 2000.000000 r_2_4_5 > -990.273326
t_1_6 - t_1_4 - 1000.000000 s_1_4  + 0.000000 s_1_7  > -997.482950
t_1_6 - t_2_4 - 1000.000000 s_2_4  + 0.000000 s_2_7  > -991.659900
t_2_6 - t_1_4 - 1000.000000 s_1_4  + 0.000000 s_1_7  > -997.482950
t_2_6 - t_2_4 - 1000.000000 s_2_4  + 0.000000 s_2_7  > -991.659900
t_1_4 - t_1_7 - 1000.000000 s_1_7  > -984.725814
t_1_4 - t_2_7 - 1000.000000 s_2_7  > -967.064250
t_2_4 - t_1_7 - 1000.000000 s_1_7  > -984.725814
t_2_4 - t_2_7 - 1000.000000 s_2_7  > -967.064250
s_1_4 + s_1_8 + 1000 r_1_4_8 >= 2
- s_1_4 - s_1_8 - 1000 r_1_4_8 >= -1001
t_1_4 - t_1_8 - 1000.000000 u_1_4_8 - 0.000000 s_1_8  + 2000.000000 r_1_4_8 > -985.034000
s_2_4 + s_2_8 + 1000 r_2_4_8 >= 2
- s_2_4 - s_2_8 - 1000 r_2_4_8 >= -1001
t_2_4 - t_2_8 - 1000.000000 u_2_4_8 - 0.000000 s_2_8  + 2000.000000 r_2_4_8 > -969.267500
s_1_5 + s_1_1 + 1000 r_1_1_5 >= 2
- s_1_5 - s_1_1 - 1000 r_1_1_5 >= -1001
t_1_5 - t_1_1 + 1000.000000 u_1_1_5 - 0.000000 s_1_1  + 0.000000 s_1_8  + 0.000000 s_1_7  + 2000.000000 r_1_1_5 > 11.204200
s_2_5 + s_2_1 + 1000 r_2_1_5 >= 2
- s_2_5 - s_2_1 - 1000 r_2_1_5 >= -1001
t_2_5 - t_2_1 + 1000.000000 u_2_1_5 - 0.000000 s_2_1  + 0.000000 s_2_8  + 0.000000 s_2_7  + 2000.000000 r_2_1_5 > 22.001182
s_1_5 + s_1_2 + 1000 r_1_2_5 >= 2
- s_1_5 - s_1_2 - 1000 r_1_2_5 >= -1001
t_1_5 - t_1_2 + 1000.000000 u_1_2_5 - 0.000000 s_1_2  + 0.000000 s_1_7  + 2000.000000 r_1_2_5 > 11.300722
s_2_5 + s_2_2 + 1000 r_2_2_5 >= 2
- s_2_5 - s_2_2 - 1000 r_2_2_5 >= -1001
t_2_5 - t_2_2 + 1000.000000 u_2_2_5 - 0.000000 s_2_2  + 0.000000 s_2_7  + 2000.000000 r_2_2_5 > 22.023300
s_1_5 + s_1_3 + 1000 r_1_3_5 >= 2
- s_1_5 - s_1_3 - 1000 r_1_3_5 >= -1001
t_1_5 - t_1_3 + 1000.000000 u_1_3_5 - 0.000000 s_1_3  + 0.000000 s_1_8  + 0.000000 s_1_7  + 2000.000000 r_1_3_5 > 1.659167
s_2_5 + s_2_3 + 1000 r_2_3_5 >= 2
- s_2_5 - s_2_3 - 1000 r_2_3_5 >= -1001
t_2_5 - t_2_3 + 1000.000000 u_2_3_5 - 0.000000 s_2_3  + 0.000000 s_2_8  + 0.000000 s_2_7  + 2000.000000 r_2_3_5 > 4.230639
s_1_5 + s_1_4 + 1000 r_1_4_5 >= 2
- s_1_5 - s_1_4 - 1000 r_1_4_5 >= -1001
t_1_5 - t_1_4 + 1000.000000 u_1_4_5 - 0.000000 s_1_4  + 0.000000 s_1_7  + 2000.000000 r_1_4_5 > 2.517050
s_2_5 + s_2_4 + 1000 r_2_4_5 >= 2
- s_2_5 - s_2_4 - 1000 r_2_4_5 >= -1001
t_2_5 - t_2_4 + 1000.000000 u_2_4_5 - 0.000000 s_2_4  + 0.000000 s_2_7  + 2000.000000 r_2_4_5 > 8.340100
t_1_6 - t_1_5 - 1000.000000 s_1_5  + 0.000000 s_1_8  > -994.621800
t_1_6 - t_2_5 - 1000.000000 s_2_5  + 0.000000 s_2_8  > -990.273326
t_2_6 - t_1_5 - 1000.000000 s_1_5  + 0.000000 s_1_8  > -994.621800
t_2_6 - t_2_5 - 1000.000000 s_2_5  + 0.000000 s_2_8  > -990.273326
s_1_5 + s_1_7 + 1000 r_1_5_7 >= 2
- s_1_5 - s_1_7 - 1000 r_1_5_7 >= -1001
t_1_5 - t_1_7 - 1000.000000 u_1_5_7 - 0.000000 s_1_7  + 2000.000000 r_1_5_7 > -984.725814
s_2_5 + s_2_7 + 1000 r_2_5_7 >= 2
- s_2_5 - s_2_7 - 1000 r_2_5_7 >= -1001
t_2_5 - t_2_7 - 1000.000000 u_2_5_7 - 0.000000 s_2_7  + 2000.000000 r_2_5_7 > -967.064250
t_1_5 - t_1_8 - 1000.000000 s_1_8  > -985.034000
t_1_5 - t_2_8 - 1000.000000 s_2_8  > -969.267500
t_2_5 - t_1_8 - 1000.000000 s_1_8  > -985.034000
t_2_5 - t_2_8 - 1000.000000 s_2_8  > -969.267500
t_1_6 - t_1_7 - 1000.000000 s_1_7  > -984.725814
t_1_6 - t_2_7 - 1000.000000 s_2_7  > -967.064250
t_2_6 - t_1_7 - 1000.000000 s_1_7  > -984.725814
t_2_6 - t_2_7 - 1000.000000 s_2_7  > -967.064250
s_1_7 + s_1_5 + 1000 r_1_5_7 >= 2
- s_1_7 - s_1_5 - 1000 r_1_5_7 >= -1001
t_1_7 - t_1_5 + 1000.000000 u_1_5_7 - 0.000000 s_1_5  + 0.000000 s_1_8  + 2000.000000 r_1_5_7 > 5.378200
s_2_7 + s_2_5 + 1000 r_2_5_7 >= 2
- s_2_7 - s_2_5 - 1000 r_2_5_7 >= -1001
t_2_7 - t_2_5 + 1000.000000 u_2_5_7 - 0.000000 s_2_5  + 0.000000 s_2_8  + 2000.000000 r_2_5_7 > 9.726674
s_1_7 + s_1_8 + 1000 r_1_7_8 >= 2
- s_1_7 - s_1_8 - 1000 r_1_7_8 >= -1001
t_1_7 - t_1_8 - 1000.000000 u_1_7_8 - 0.000000 s_1_8  + 2000.000000 r_1_7_8 > -985.034000
s_2_7 + s_2_8 + 1000 r_2_7_8 >= 2
- s_2_7 - s_2_8 - 1000 r_2_7_8 >= -1001
t_2_7 - t_2_8 - 1000.000000 u_2_7_8 - 0.000000 s_2_8  + 2000.000000 r_2_7_8 > -969.267500
s_1_8 + s_1_2 + 1000 r_1_2_8 >= 2
- s_1_8 - s_1_2 - 1000 r_1_2_8 >= -1001
t_1_8 - t_1_2 + 1000.000000 u_1_2_8 - 0.000000 s_1_2  + 0.000000 s_1_7  + 2000.000000 r_1_2_8 > 11.300722
s_2_8 + s_2_2 + 1000 r_2_2_8 >= 2
- s_2_8 - s_2_2 - 1000 r_2_2_8 >= -1001
t_2_8 - t_2_2 + 1000.000000 u_2_2_8 - 0.000000 s_2_2  + 0.000000 s_2_7  + 2000.000000 r_2_2_8 > 22.023300
s_1_8 + s_1_4 + 1000 r_1_4_8 >= 2
- s_1_8 - s_1_4 - 1000 r_1_4_8 >= -1001
t_1_8 - t_1_4 + 1000.000000 u_1_4_8 - 0.000000 s_1_4  + 0.000000 s_1_7  + 2000.000000 r_1_4_8 > 2.517050
s_2_8 + s_2_4 + 1000 r_2_4_8 >= 2
- s_2_8 - s_2_4 - 1000 r_2_4_8 >= -1001
t_2_8 - t_2_4 + 1000.000000 u_2_4_8 - 0.000000 s_2_4  + 0.000000 s_2_7  + 2000.000000 r_2_4_8 > 8.340100
s_1_8 + s_1_7 + 1000 r_1_7_8 >= 2
- s_1_8 - s_1_7 - 1000 r_1_7_8 >= -1001
t_1_8 - t_1_7 + 1000.000000 u_1_7_8 - 0.000000 s_1_7  + 2000.000000 r_1_7_8 > 15.274186
s_2_8 + s_2_7 + 1000 r_2_7_8 >= 2
- s_2_8 - s_2_7 - 1000 r_2_7_8 >= -1001
t_2_8 - t_2_7 + 1000.000000 u_2_7_8 - 0.000000 s_2_7  + 2000.000000 r_2_7_8 > 32.935750
Binary
s_1_1
s_2_1
s_1_2
s_2_2
s_1_3
s_2_3
s_1_4
s_2_4
s_1_5
s_2_5
s_1_6
s_2_6
s_1_7
s_2_7
s_1_8
s_2_8
u_1_1_2
r_1_1_2
u_2_1_2
r_2_1_2
u_1_1_3
r_1_1_3
u_2_1_3
r_2_1_3
u_1_1_4
r_1_1_4
u_2_1_4
r_2_1_4
u_1_1_5
r_1_1_5
u_2_1_5
r_2_1_5
u_1_2_3
r_1_2_3
u_2_2_3
r_2_2_3
u_1_2_4
r_1_2_4
u_2_2_4
r_2_2_4
u_1_2_5
r_1_2_5
u_2_2_5
r_2_2_5
u_1_2_8
r_1_2_8
u_2_2_8
r_2_2_8
u_1_3_4
r_1_3_4
u_2_3_4
r_2_3_4
u_1_3_5
r_1_3_5
u_2_3_5
r_2_3_5
u_1_4_5
r_1_4_5
u_2_4_5
r_2_4_5
u_1_4_8
r_1_4_8
u_2_4_8
r_2_4_8
u_1_5_7
r_1_5_7
u_2_5_7
r_2_5_7
u_1_7_8
r_1_7_8
u_2_7_8
r_2_7_8

End
